param N := 6;

param Q :  1  2  3  4  5  6 :=
       1   -19  0  0  0  0 20
       2    0 -19  0  0 20  0
       3    0  0 -19 20  0  0
       4    0  0 20 -19  0  0
       5    0 20  0  0 -19  0
       6   20  0  0  0  0 -19
;
